
******************************************************************************
This program contains Ipopt, a library for large-scale nonlinear optimization.
 Ipopt is released as open source code under the Eclipse Public License (EPL).
         For more information visit https://github.com/coin-or/Ipopt
******************************************************************************

This is Ipopt version 3.14.19, running with linear solver MUMPS 5.8.1.

Number of nonzeros in equality constraint Jacobian...:     4389
Number of nonzeros in inequality constraint Jacobian.:        0
Number of nonzeros in Lagrangian Hessian.............:     1050

Total number of variables............................:     1287
                     variables with only lower bounds:        0
                variables with lower and upper bounds:      457
                     variables with only upper bounds:        0
Total number of equality constraints.................:     1274
Total number of inequality constraints...............:        0
        inequality constraints with only lower bounds:        0
   inequality constraints with lower and upper bounds:        0
        inequality constraints with only upper bounds:        0

iter    objective    inf_pr   inf_du lg(mu)  ||d||  lg(rg) alpha_du alpha_pr  ls
   0  9.8482056e+00 9.90e+01 1.91e-04  -1.0 0.00e+00    -  0.00e+00 0.00e+00   0
   1  9.8672012e+00 5.93e+00 1.48e+01  -1.0 9.86e+01    -  6.05e-02 1.00e+00h  1
   2  9.8602822e+00 8.63e+00 8.33e-02  -1.0 4.01e+01    -  9.31e-01 1.00e+00h  1
   3  9.8846961e+00 9.94e+02 2.63e-01  -1.0 8.39e+02    -  5.48e-01 5.69e-01h  1
   4  9.8644140e+00 7.22e+02 1.97e+00  -1.0 2.62e+00  -4.0 7.65e-02 2.74e-01h  1
   5  9.8586769e+00 4.95e+02 1.92e+00  -1.0 1.21e+01  -4.5 5.81e-01 3.12e-01h  1
   6  9.8641888e+00 1.11e+02 2.93e-01  -1.0 6.96e+00  -5.0 8.75e-01 7.68e-01h  1
   7  9.8678285e+00 3.88e-01 1.62e-04  -1.0 1.60e+00  -5.4 1.00e+00 1.00e+00h  1
   8  9.8677376e+00 5.25e-04 2.66e-04  -1.7 6.53e-01  -5.9 1.00e+00 1.00e+00h  1
   9  9.8677230e+00 1.05e-07 6.41e-03  -3.8 3.68e-01  -6.4 9.89e-01 1.00e+00h  1
iter    objective    inf_pr   inf_du lg(mu)  ||d||  lg(rg) alpha_du alpha_pr  ls
  10  9.8618493e+00 1.04e-03 1.30e-03  -3.8 2.37e+00  -6.9 5.97e-01 1.00e+00f  1
  11  9.8600901e+00 1.71e-04 5.50e-04  -5.7 1.41e+00  -7.3 7.63e-01 1.00e+00h  1
  12  9.8600126e+00 1.58e-04 1.82e-03  -5.7 4.27e+00  -7.8 8.10e-01 2.05e-01h  1
  13  9.8599277e+00 6.24e-04 3.12e-03  -5.7 1.34e+01  -8.3 8.87e-01 3.42e-01h  1
  14  9.8599081e+00 5.34e-02 3.07e-05  -5.7 4.67e+01  -8.8 1.00e+00 1.00e+00h  1
  15  9.8595252e+00 6.76e+00 3.58e-03  -5.7 4.71e+02  -9.2 1.00e+00 1.00e+00h  1
  16  9.8598713e+00 2.90e+00 1.59e-03  -5.7 2.22e+02    -  1.00e+00 1.00e+00h  1
  17  9.8569945e+00 1.29e+02 6.47e-02  -5.7 1.12e+03  -8.8 1.00e+00 1.00e+00h  1
  18  9.8585503e+00 3.35e+01 1.69e-02  -5.7 5.19e+02    -  1.00e+00 1.00e+00h  1
  19  9.8593694e+00 9.60e+00 4.90e-03  -5.7 3.00e+02    -  1.00e+00 1.00e+00h  1
iter    objective    inf_pr   inf_du lg(mu)  ||d||  lg(rg) alpha_du alpha_pr  ls
  20  9.8597621e+00 3.43e+00 2.01e-03  -5.7 2.30e+02    -  1.00e+00 1.00e+00h  1
  21  9.8556514e+00 1.15e+02 4.90e-02  -5.7 6.70e+02  -8.4 1.00e+00 1.00e+00h  1
  22  9.8577891e+00 3.01e+01 1.29e-02  -5.7 3.19e+02    -  1.00e+00 1.00e+00h  1
  23  9.8589197e+00 8.64e+00 3.96e-03  -5.7 1.89e+02    -  1.00e+00 1.00e+00h  1
  24  9.8592398e+00 1.93e+00 2.21e-03  -5.7 1.55e+02    -  1.00e+00 1.00e+00h  1
  25  9.8566122e+00 1.99e+01 6.27e-03  -5.7 1.84e+02  -8.0 1.00e+00 1.00e+00h  1
  26  9.8578398e+00 5.23e+00 2.48e-03  -5.7 9.98e+01    -  1.00e+00 1.00e+00h  1
  27  9.8500144e+00 3.10e+01 5.60e-03  -5.7 6.83e+01    -  1.00e+00 1.00e+00h  1
  28  9.8516993e+00 5.66e+00 1.98e-03  -5.7 3.94e+01    -  1.00e+00 1.00e+00h  1
  29  9.8491083e+00 6.63e+00 8.09e-04  -5.7 2.90e+01    -  1.00e+00 1.00e+00h  1
iter    objective    inf_pr   inf_du lg(mu)  ||d||  lg(rg) alpha_du alpha_pr  ls
  30  9.8482433e+00 2.17e+00 2.14e-04  -5.7 1.13e+01    -  1.00e+00 1.00e+00h  1
  31  9.8482097e+00 7.91e-02 9.23e-06  -5.7 2.91e+00    -  1.00e+00 1.00e+00h  1
  32  9.8482091e+00 2.00e-04 4.34e-08  -5.7 7.46e-02    -  1.00e+00 1.00e+00h  1
  33  9.8482091e+00 1.45e-10 7.59e-14  -5.7 2.38e-04    -  1.00e+00 1.00e+00h  1
  34  9.8482049e+00 2.35e-07 1.42e-04  -8.6 6.31e-03    -  9.93e-01 8.82e-01h  1
  35  9.8482049e+00 5.52e-09 4.76e-12  -8.6 1.94e-04    -  1.00e+00 1.00e+00h  1

Number of Iterations....: 35

                                   (scaled)                 (unscaled)
Objective...............:   9.8482049288440852e+00    9.8482049288440852e+00
Dual infeasibility......:   4.7555934884480067e-12    4.7555934884480067e-12
Constraint violation....:   5.5226880845062684e-09    5.5226880845062684e-09
Variable bound violation:   0.0000000000000000e+00    0.0000000000000000e+00
Complementarity.........:   2.5134540177722433e-09    2.5134540177722433e-09
Overall NLP error.......:   5.5226880845062684e-09    5.5226880845062684e-09


Number of objective function evaluations             = 36
Number of objective gradient evaluations             = 36
Number of equality constraint evaluations            = 36
Number of inequality constraint evaluations          = 0
Number of equality constraint Jacobian evaluations   = 36
Number of inequality constraint Jacobian evaluations = 0
Number of Lagrangian Hessian evaluations             = 35
Total seconds in IPOPT                               = 0.223

EXIT: Optimal Solution Found.
